CMD:
./solvers/bin/cadical --plain --no-reduce -t 1600 ./data/cnfs//6s277rb292/6s277rb292.58.cnf

c --- [ banner ] -------------------------------------------------------------
c 
c CaDiCaL SAT Solver
c Copyright (c) 2016-2024
c A. Biere, M. Fleury, N. Froleyks, K. Fazekas, F. Pollitt, T. Faller
c JKU Linz, University of Freiburg, TU Wien
c 
c Version 2.1.3 5296d3d2a9bf48c154ab2acb5e44625776d821bf
c g++ (Gentoo 12.3.1_p20230526 p2) 12.3.1 20230526 -Wall -Wextra -O3 -DNDEBUG
c Sat Aug 9 07:26:21 PDT 2025 Linux cedar2.int.cedar.computecanada.ca 5.14.0-362.24.2.el9_3.x86_64 x86_64
c 
c --- [ limit ] --------------------------------------------------------------
c 
c setting time limit to 1600 seconds real time (due to '-t 1600')
c 
c --- [ parsing input ] ------------------------------------------------------
c 
c reading DIMACS file from './data/cnfs//6s277rb292/6s277rb292.58.cnf'
c opening file to read './data/cnfs//6s277rb292/6s277rb292.58.cnf'
c found 'p cnf 931496 2741450' header
c parsed 2741450 clauses in 0.41 seconds process time
c 
c --- [ options ] ------------------------------------------------------------
c 
c   --compact=false                (different from default 'true')
c   --decompose=false              (different from default 'true')
c   --deduplicate=false            (different from default 'true')
c   --elim=false                   (different from default 'true')
c   --probe=false                  (different from default 'true')
c   --reduce=false                 (different from default 'true')
c   --subsume=false                (different from default 'true')
c   --ternary=false                (different from default 'true')
c   --transred=false               (different from default 'true')
c   --vivify=false                 (different from default 'true')
c 
c --- [ solving ] ------------------------------------------------------------
c 
c time measured in process time since initialization
c 
c  seconds   reductions  redundant   irredundant
c          MB    restarts       trail        variables
c           level   conflicts       glue           remaining
c 
c *  0.41 345  0 0   0    0    0  0% 0 1896542 482110 52%
c {  0.58 349  0 0   0    0    0  0% 0 1896542 482110 52%
c i  0.91 350 3618 0  14  190  119 68% 4 1896542 482099 52%
c i  0.94 350 3257 0  18  206  132 66% 4 1896542 482025 52%
c i  0.98 350 2888 0  21  224  142 65% 4 1896542 481940 52%
c i  1.08 350 2333 0  27  263  176 64% 4 1896542 481855 52%
c i  1.64 351 1137 0  28  486  385 63% 3 1896542 449500 48%
c i  1.66 351 1124 0  28  491  383 62% 3 1896542 434483 47%
c i  1.66 351 1121 0  28  492  383 62% 3 1896542 434472 47%
c i  1.78 351 922 0  28  591  465 62% 3 1896542 427126 46%
c i  1.78 351 920 0  28  592  465 62% 3 1896542 423052 45%
c i  1.79 351 917 0  28  594  466 62% 3 1896542 414234 44%
c i  1.81 351 903 0  28  604  472 62% 3 1896542 400485 43%
c i  1.81 351 901 0  28  605  472 62% 3 1896542 395137 42%
c i  1.81 351 900 0  28  606  472 62% 3 1896542 389789 42%
c i  1.81 351 898 0  28  607  472 62% 3 1896542 384441 41%
c }  1.82 351 895 0  28  610  472 62% 3 1896542 375946 40%
c 0  1.82 351 895 0  28  610  472 62% 3 1896542 375946 40%
c 
c --- [ result ] -------------------------------------------------------------
c 
s UNSATISFIABLE
c 
c --- [ run-time profiling ] -------------------------------------------------
c 
c process time taken by individual solving procedures
c (percentage relative to process time for solving)
c 
c         1.41   99.99% search
c         1.24   87.95% unstable
c         0.41   29.08% parse
c         0.17   12.04% lucky
c         0.00    0.00% simplify
c   =================================
c         1.41   77.45% solve
c 
c last line shows process time for solving
c (percentage relative to total process time)
c 
c --- [ statistics ] ---------------------------------------------------------
c 
c chronological:               351        57.54 %  of conflicts
c conflicts:                   610       433.37    per second
c decisions:                 15407     10945.92    per second
c fixed:                    544705        58.48 %  of all variables
c learned:                     527        86.39 %  per conflict
c learned_lits:               5296       100.00 %  learned literals
c minimized:                     0         0.00 %  learned literals
c shrunken:                   2088        39.43 %  learned literals
c minishrunken:                199         3.76 %  learned literals
c otfs:                          5         0.82 %  of conflict
c propagations:           14218701        10.10 M  per second
c restarts:                     28        21.79    interval
c subsumed:                     37         0.00 %  of all clauses
c strengthened:                  5         0.00 %  of all clauses
c 
c seconds are measured in process time for solving
c 
c --- [ resources ] ----------------------------------------------------------
c 
c total process time since initialization:         1.82    seconds
c total real time since initialization:            1.83    seconds
c maximum resident set size of process:          349.36    MB
c 
c --- [ shutting down ] ------------------------------------------------------
c 
c exit 20
